50
150
100
97
96
94
94
93
90
89
89
86
85
84
83
83
83
82
80
78
75
74
72
72
71
70
69
69
66
64
64
63
62
60
59
59
58
57
57
57
57
56
50
50
47
44
43
41
37
36
35
33
